analyze/results_flowersnark/final_miplib_symretope_if_extended_generating_set_cpx_v802__settings_final_nopeek_norelabel_extend_norestarts__2__neos-525149.mps.gz.sol
solution status: optimal solution found
objective value:                                   61
C0053                                               1 	(obj:1)
C0106                                               1 	(obj:1)
C0164                                               1 	(obj:1)
C0222                                               1 	(obj:1)
C0303                                               1 	(obj:1)
C0371                                               1 	(obj:1)
C0415                                               1 	(obj:1)
C0495                                               1 	(obj:1)
C0556                                               1 	(obj:1)
C0608                                               1 	(obj:1)
C0643                                               1 	(obj:1)
C0714                                               1 	(obj:1)
C0815                                               1 	(obj:1)
C0840                                               1 	(obj:1)
C0912                                               1 	(obj:1)
C0984                                               1 	(obj:1)
C1027                                               1 	(obj:1)
C1071                                               1 	(obj:1)
C1127                                               1 	(obj:1)
C1219                                               1 	(obj:1)
C1270                                               1 	(obj:1)
C1337                                               1 	(obj:1)
C1402                                               1 	(obj:1)
C1436                                               1 	(obj:1)
C1485                                               1 	(obj:1)
C1586                                               1 	(obj:1)
C1622                                               1 	(obj:1)
C1701                                               1 	(obj:1)
C1744                                               1 	(obj:1)
C1839                                               1 	(obj:1)
C1883                                               1 	(obj:1)
C1947                                               1 	(obj:1)
C1970                                               1 	(obj:1)
C2038                                               1 	(obj:1)
C2081                                               1 	(obj:1)
C2166                                               1 	(obj:1)
C2238                                               1 	(obj:1)
C2277                                               1 	(obj:1)
C2349                                               1 	(obj:1)
C2392                                               1 	(obj:1)
C2459                                               1 	(obj:1)
C2509                                               1 	(obj:1)
C2614                                               1 	(obj:1)
C2628                                               1 	(obj:1)
C2728                                               1 	(obj:1)
C2797                                               1 	(obj:1)
C2850                                               1 	(obj:1)
C2911                                               1 	(obj:1)
C2969                                               1 	(obj:1)
C3033                                               1 	(obj:1)
C3080                                               1 	(obj:1)
C3125                                               1 	(obj:1)
C3218                                               1 	(obj:1)
C3254                                               1 	(obj:1)
C3340                                               1 	(obj:1)
C3373                                               1 	(obj:1)
C3421                                               1 	(obj:1)
C3505                                               1 	(obj:1)
C3572                                               1 	(obj:1)
C3636                                               1 	(obj:1)
C0024                                               1 	(obj:1)
