analyze/results_flowersnark/final_miplib_symretope_if_extended_generating_set_cpx_v802__settings_final_nopeek_norelabel_extend_norestarts__2__neos-525149.mps.gz.out
FILENAME:   /home/mcs001/s132664/testsets/IP/miplib2017/neos-525149.mps.gz
SETTINGS:   settings_final_nopeek_norelabel_extend_norestarts
TIMELIMIT:  7200
OUTPUTNAME: final_miplib_symretope_if_extended_generating_set_cpx_v802__settings_final_nopeek_norelabel_extend_norestarts__2__
BINNAME:    bin/sbcs.linux.x86_64.gnu.opt.cpx
BASENAME:   neos-525149.mps.gz
SEED:       2
@01 /home/mcs001/s132664/testsets/IP/miplib2017/neos-525149.mps.gz ===========
@02 neos-525149.mps.gz
@03 1686656927
SCIP version 8.0.2 [precision: 8 byte] [memory: block] [mode: optimized] [LP solver: CPLEX 20.1.0.0] [GitHash: 5f0473c]
Copyright (C) 2002-2022 Konrad-Zuse-Zentrum fuer Informationstechnik Berlin (ZIB)

Symretope propagation methods - (c) Jasper van Doornmalen, Christopher Hojny.
[GitHash: 2fd0484]

reading parameter file <../settings/settings_final_nopeek_norelabel_extend_norestarts.set> ...

Changed settings:
limits/time = 7200
limits/restarts = 0
misc/usesymmetry = 1
randomization/randomseedshift = 2
constraints/orbisack/sepafreq = -1
constraints/symresack/sepafreq = -1
propagating/symmetry/addsymresacks = TRUE
propagating/symmetry/detectsubgroups = FALSE
propagating/symmetry/relabelsymretopes = 0
propagating/symmetry/extendgenerators = TRUE
propagating/symmetry/ofsymcomptiming = 0
constraints/symretope/sepafreq = -1
constraints/symretope/peek = FALSE


solving problem ...

original problem has 3640 variables (3600 bin, 0 int, 0 impl, 40 cont) and 144120 constraints
presolving:
(round 1, fast)       0 del vars, 0 del conss, 0 add conss, 40 chg bounds, 0 chg sides, 0 chg coeffs, 0 upgd conss, 0 impls, 120 clqs
(round 2, exhaustive) 0 del vars, 141600 del conss, 0 add conss, 40 chg bounds, 0 chg sides, 0 chg coeffs, 0 upgd conss, 0 impls, 120 clqs
(round 3, exhaustive) 0 del vars, 141600 del conss, 0 add conss, 40 chg bounds, 0 chg sides, 0 chg coeffs, 120 upgd conss, 0 impls, 120 clqs
   (1.2s) probing: 51/3600 (1.4%) - 0 fixings, 0 aggregations, 0 implications, 0 bound changes
   (1.2s) probing aborted: 50/50 successive totally useless probings
   (1.2s) symmetry computation started: requiring (bin +, int +, cont +), (fixed: bin -, int -, cont -)
   (1.4s) symmetry computation finished: 56 generators found (max: 1500, log10 of symmetry group size: 31.8)
(round 4, exhaustive) 60 del vars, 141603 del conss, 279 add conss, 40 chg bounds, 0 chg sides, 0 chg coeffs, 120 upgd conss, 0 impls, 120 clqs
(round 5, fast)       64 del vars, 141604 del conss, 279 add conss, 40 chg bounds, 0 chg sides, 0 chg coeffs, 120 upgd conss, 0 impls, 120 clqs
(round 6, medium)     97 del vars, 141604 del conss, 279 add conss, 40 chg bounds, 0 chg sides, 0 chg coeffs, 120 upgd conss, 0 impls, 120 clqs
(round 7, fast)       97 del vars, 141609 del conss, 279 add conss, 40 chg bounds, 0 chg sides, 0 chg coeffs, 120 upgd conss, 0 impls, 120 clqs
(round 8, medium)     119 del vars, 141609 del conss, 279 add conss, 41 chg bounds, 0 chg sides, 0 chg coeffs, 120 upgd conss, 0 impls, 120 clqs
(round 9, medium)     131 del vars, 141609 del conss, 279 add conss, 41 chg bounds, 0 chg sides, 0 chg coeffs, 120 upgd conss, 0 impls, 120 clqs
(round 10, medium)     135 del vars, 141609 del conss, 279 add conss, 41 chg bounds, 0 chg sides, 0 chg coeffs, 120 upgd conss, 0 impls, 120 clqs
(round 11, exhaustive) 135 del vars, 141634 del conss, 279 add conss, 41 chg bounds, 0 chg sides, 0 chg coeffs, 120 upgd conss, 0 impls, 120 clqs
   (2.3s) probing: 1000/3600 (27.8%) - 4 fixings, 0 aggregations, 23823 implications, 0 bound changes
   (3.3s) probing: 2000/3600 (55.6%) - 16 fixings, 0 aggregations, 52947 implications, 0 bound changes
   (4.4s) probing: 3000/3600 (83.3%) - 18 fixings, 0 aggregations, 81902 implications, 0 bound changes
   (5.2s) probing cycle finished: starting next cycle
(round 12, exhaustive) 154 del vars, 141634 del conss, 279 add conss, 41 chg bounds, 0 chg sides, 0 chg coeffs, 120 upgd conss, 104 impls, 101421 clqs
   (6.2s) probing: 1000/3450 (29.0%) - 28 fixings, 0 aggregations, 108111 implications, 0 bound changes
(round 13, exhaustive) 179 del vars, 141635 del conss, 279 add conss, 43 chg bounds, 0 chg sides, 0 chg coeffs, 120 upgd conss, 108 impls, 121553 clqs
   (7.4s) probing: 2000/3450 (58.0%) - 46 fixings, 0 aggregations, 125579 implications, 0 bound changes
(round 14, exhaustive) 204 del vars, 141635 del conss, 279 add conss, 43 chg bounds, 0 chg sides, 0 chg coeffs, 120 upgd conss, 113 impls, 138741 clqs
(round 15, exhaustive) 204 del vars, 141639 del conss, 279 add conss, 44 chg bounds, 4 chg sides, 0 chg coeffs, 120 upgd conss, 113 impls, 138741 clqs
   (8.7s) probing: 3000/3450 (87.0%) - 70 fixings, 0 aggregations, 143813 implications, 0 bound changes
(round 16, exhaustive) 229 del vars, 141639 del conss, 279 add conss, 44 chg bounds, 4 chg sides, 0 chg coeffs, 120 upgd conss, 119 impls, 144100 clqs
(round 17, exhaustive) 254 del vars, 141639 del conss, 279 add conss, 44 chg bounds, 4 chg sides, 0 chg coeffs, 120 upgd conss, 127 impls, 143895 clqs
   (9.4s) probing cycle finished: starting next cycle
   (10.6s) probing: 1000/3347 (29.9%) - 123 fixings, 0 aggregations, 159171 implications, 0 bound changes
   (12.0s) probing: 2000/3347 (59.8%) - 133 fixings, 0 aggregations, 172327 implications, 0 bound changes
   (13.6s) probing: 3000/3347 (89.6%) - 137 fixings, 0 aggregations, 185426 implications, 0 bound changes
(round 18, exhaustive) 272 del vars, 141639 del conss, 279 add conss, 45 chg bounds, 4 chg sides, 0 chg coeffs, 120 upgd conss, 164 impls, 178230 clqs
   (14.2s) probing cycle finished: starting next cycle
   (14.4s) probing: 142/3332 (4.3%) - 137 fixings, 0 aggregations, 189201 implications, 0 bound changes
   (14.4s) probing aborted: 1000/1000 successive useless probings
presolving (19 rounds: 19 fast, 16 medium, 12 exhaustive):
 272 deleted vars, 141639 deleted constraints, 279 added constraints, 46 tightened bounds, 0 added holes, 4 changed sides, 0 changed coefficients
 168 implications, 178927 cliques
presolved problem has 3372 variables (3332 bin, 0 int, 40 impl, 0 cont) and 2760 constraints
    120 constraints of type <setppc>
   2364 constraints of type <linear>
    154 constraints of type <orbisack>
     49 constraints of type <orbitope>
     73 constraints of type <symretope>
transformed objective value is always integral (scale: 1)
Presolving Time: 13.94

 time | node  | left  |LP iter|LP it/n|mem/heur|mdpt |vars |cons |rows |cuts |sepa|confs|strbr|  dualbound   | primalbound  |  gap   | compl. 
p14.7s|     1 |     0 |     0 |     - |shiftand|   0 |3372 |2811 |2539 |   0 |  0 |  52 |   0 | 9.000000e+00 | 2.703600e+04 |  Large | unknown
 14.9s|     1 |     0 |   315 |     - |   338M |   0 |3372 |2811 |2539 |   0 |  0 |  52 |   0 | 6.000000e+01 | 2.703600e+04 |  Large | unknown
 15.4s|     1 |     0 |   398 |     - |   339M |   0 |3372 |2812 |2549 |  11 |  1 |  53 |   0 | 6.000000e+01 | 2.703600e+04 |  Large | unknown
 15.6s|     1 |     0 |   601 |     - |   340M |   0 |3372 |2815 |2581 |  43 |  2 |  56 |   0 | 6.000000e+01 | 2.703600e+04 |  Large | unknown
 15.7s|     1 |     0 |   708 |     - |   340M |   0 |3372 |2823 |2585 |  47 |  3 |  64 |   0 | 6.000000e+01 | 2.703600e+04 |  Large | unknown
 15.8s|     1 |     0 |   781 |     - |   340M |   0 |3372 |2828 |2591 |  53 |  4 |  69 |   0 | 6.000000e+01 | 2.703600e+04 |  Large | unknown
 15.9s|     1 |     0 |   900 |     - |   342M |   0 |3372 |2829 |2612 |  74 |  5 |  70 |   0 | 6.000000e+01 | 2.703600e+04 |  Large | unknown
 16.0s|     1 |     0 |  1030 |     - |   342M |   0 |3372 |2830 |2621 |  83 |  6 |  71 |   0 | 6.000000e+01 | 2.703600e+04 |  Large | unknown
 16.1s|     1 |     0 |  1141 |     - |   342M |   0 |3372 |2831 |2642 | 104 |  7 |  72 |   0 | 6.000000e+01 | 2.703600e+04 |  Large | unknown
 16.2s|     1 |     0 |  1230 |     - |   342M |   0 |3372 |2838 |2652 | 114 |  8 |  79 |   0 | 6.000000e+01 | 2.703600e+04 |  Large | unknown
 16.4s|     1 |     0 |  1349 |     - |   343M |   0 |3372 |2841 |2669 | 131 |  9 |  82 |   0 | 6.000000e+01 | 2.703600e+04 |  Large | unknown
 16.5s|     1 |     0 |  1462 |     - |   344M |   0 |3372 |2844 |2683 | 145 | 10 |  85 |   0 | 6.000000e+01 | 2.703600e+04 |  Large | unknown
 16.6s|     1 |     0 |  1540 |     - |   344M |   0 |3372 |2845 |2631 | 157 | 11 |  86 |   0 | 6.000000e+01 | 2.703600e+04 |  Large | unknown
d16.8s|     1 |     0 |  2188 |     - |farkasdi|   0 |3372 |2846 |2631 |   0 | 11 |  88 |   0 | 6.000000e+01 | 6.100000e+01 |   1.67%| unknown
 17.0s|     1 |     0 |  2622 |     - |   345M |   0 |3372 |1858 |2631 | 157 | 11 |  89 |   0 | 6.000000e+01 | 6.100000e+01 |   1.67%| unknown
 time | node  | left  |LP iter|LP it/n|mem/heur|mdpt |vars |cons |rows |cuts |sepa|confs|strbr|  dualbound   | primalbound  |  gap   | compl. 
 17.0s|     1 |     0 |  2623 |     - |   345M |   0 |3372 |1858 |1640 | 157 | 11 |  89 |   0 | 6.100000e+01 | 6.100000e+01 |   0.00%| unknown
 17.0s|     1 |     0 |  2623 |     - |   345M |   0 |3372 |1858 |1640 | 157 | 11 |  89 |   0 | 6.100000e+01 | 6.100000e+01 |   0.00%| unknown

SCIP Status        : problem is solved [optimal solution found]
Solving Time (sec) : 17.04
Solving Nodes      : 1
Primal Bound       : +6.10000000000000e+01 (3 solutions)
Dual Bound         : +6.10000000000000e+01
Gap                : 0.00 %
SCIP Status        : problem is solved [optimal solution found]
Total Time         :      18.54
  solving          :      17.04
  presolving       :      13.94 (included in solving)
  reading          :       1.51
  copying          :       0.02 (2 #copies) (minimal 0.01, maximal 0.01, average 0.01)
Original Problem   :
  Problem name     : neos-525149
  Variables        : 3640 (3600 binary, 0 integer, 0 implicit integer, 40 continuous)
  Constraints      : 144120 initial, 144120 maximal
  Objective        : minimize, 3640 non-zeros (abs.min = 1, abs.max = 1000)
Presolved Problem  :
  Problem name     : t_neos-525149
  Variables        : 3372 (3332 binary, 0 integer, 40 implicit integer, 0 continuous)
  Constraints      : 2760 initial, 2847 maximal
  Objective        : minimize, 2902 non-zeros (abs.min = 1, abs.max = 1000)
  Nonzeros         : 114114 constraint, 362048 clique table
Presolvers         :   ExecTime  SetupTime  Calls  FixedVars   AggrVars   ChgTypes  ChgBounds   AddHoles    DelCons    AddCons   ChgSides   ChgCoefs
  boundshift       :       0.00       0.00      0          0          0          0          0          0          0          0          0          0
  convertinttobin  :       0.00       0.00      0          0          0          0          0          0          0          0          0          0
  domcol           :       0.00       0.00      8          0          0          0          0          0          0          0          0          0
  dualagg          :       0.00       0.00      0          0          0          0          0          0          0          0          0          0
  dualcomp         :       0.00       0.00      0          0          0          0          0          0          0          0          0          0
  dualinfer        :       0.00       0.00      0          0          0          0          0          0          0          0          0          0
  dualsparsify     :       0.01       0.00      1          0          0          0          0          0          0          0          0          0
  gateextraction   :       0.00       0.00      0          0          0          0          0          0          0          0          0          0
  implics          :       0.00       0.00     16          0          0          0          0          0          0          0          0          0
  inttobinary      :       0.00       0.00      0          0          0          0          0          0          0          0          0          0
  qpkktref         :       0.00       0.00      0          0          0          0          0          0          0          0          0          0
  redvub           :       0.00       0.00      0          0          0          0          0          0          0          0          0          0
  sparsify         :       0.07       0.00      2          0          0          0          0          0          0          0          0          0
  stuffing         :       0.00       0.00      0          0          0          0          0          0          0          0          0          0
  trivial          :       0.00       0.00     19          4          0          0          0          0          0          0          0          0
  tworowbnd        :       0.00       0.00      0          0          0          0          0          0          0          0          0          0
  dualfix          :       0.00       0.00     19          0          0          0          0          0          0          0          0          0
  genvbounds       :       0.00       0.00      0          0          0          0          0          0          0          0          0          0
  probing          :      12.78       0.00      8        137          0          0          0          0          0          0          0          0
  pseudoobj        :       0.00       0.00      0          0          0          0          0          0          0          0          0          0
  symmetry         :       0.19       0.00      1         60          0          0          0          0          3        279          0          0
  vbounds          :       0.10       0.00      5          0          0          0          0          0          0          0          0          0
  setppc           :       0.01       0.00     40          0          0          0          0          0          0          0          0          0
  linear           :       0.60       0.20     31          0          0          0         46          0     141636          0          4          0
  orbisack         :       0.00       0.00      7          0          0          0          0          0          0          0          0          0
  orbitope         :       0.00       0.00     13         71          0          0          0          0          0          0          0          0
  symretope        :       0.00       0.00      7          0          0          0          0          0          0          0          0          0
  logicor          :       0.00       0.00      0          0          0          0          0          0          0          0          0          0
  benders          :       0.00       0.00      0          0          0          0          0          0          0          0          0          0
  components       :       0.01       0.00      1          0          0          0          0          0          0          0          0          0
  root node        :          -          -      -       1658          -          -       1658          -          -          -          -          -
Constraints        :     Number  MaxNumber  #Separate #Propagate    #EnfoLP    #EnfoRelax  #EnfoPS    #Check   #ResProp    Cutoffs    DomReds       Cuts    Applied      Conss   Children
  benderslp        :          0          0          0          0          0          0          0         13          0          0          0          0          0          0          0
  integral         :          0          0          0          0          0          0          0         13          0          0          0          0          0          0          0
  setppc           :        120+       147         11      22963          0          0          0          7       1230        137          0          8          5          0          0
  linear           :       2364       2364         11      22825          0          0          0          3          0          0          0          0          0          0          0
  orbisack         :        154        154          0         61          0          0          0          3        333          7          0          0          0          0          0
  orbitope         :         49         49          0      22720          0          0          0          3       4986         28         32          0          0          0          0
  symretope        :         73         73          0        180          0          0          0          3         99          9          0          0          0          0          0
  logicor          :          0+        60         11         82          0          0          0          0          2          1          0          3          1          0          0
  benders          :          0          0          0          0          0          0          0          4          0          0          0          0          0          0          0
  countsols        :          0          0          0          0          0          0          0          4          0          0          0          0          0          0          0
  components       :          0          0          0          0          0          0          0          0          0          0          0          0          0          0          0
Constraint Timings :  TotalTime  SetupTime   Separate  Propagate     EnfoLP     EnfoPS     EnfoRelax   Check    ResProp    SB-Prop
  benderslp        :       0.00       0.00       0.00       0.00       0.00       0.00       0.00       0.00       0.00       0.00
  integral         :       0.00       0.00       0.00       0.00       0.00       0.00       0.00       0.00       0.00       0.00
  setppc           :       0.15       0.00       0.00       0.15       0.00       0.00       0.00       0.00       0.00       0.00
  linear           :       0.99       0.20       0.01       0.79       0.00       0.00       0.00       0.00       0.00       0.00
  orbisack         :       0.01       0.00       0.00       0.01       0.00       0.00       0.00       0.00       0.00       0.00
  orbitope         :       1.54       0.00       0.00       1.53       0.00       0.00       0.00       0.00       0.01       0.00
  symretope        :       0.02       0.00       0.00       0.02       0.00       0.00       0.00       0.00       0.00       0.00
  logicor          :       0.00       0.00       0.00       0.00       0.00       0.00       0.00       0.00       0.00       0.00
  benders          :       0.00       0.00       0.00       0.00       0.00       0.00       0.00       0.00       0.00       0.00
  countsols        :       0.00       0.00       0.00       0.00       0.00       0.00       0.00       0.00       0.00       0.00
  components       :       0.00       0.00       0.00       0.00       0.00       0.00       0.00       0.00       0.00       0.00
Propagators        : #Propagate   #ResProp    Cutoffs    DomReds
  dualfix          :          5          0          0          0
  genvbounds       :          0          0          0          0
  nlobbt           :          0          0          0          0
  obbt             :          0          0          0          0
  probing          :          0          0          0          0
  pseudoobj        :         20          0          0       1533
  redcost          :         14          0          0         88
  rootredcost      :          0          0          0          0
  symmetry         :          0          0          0          0
  vbounds          :        551          0          0          0
Propagator Timings :  TotalTime  SetupTime   Presolve  Propagate    ResProp    SB-Prop
  dualfix          :       0.00       0.00       0.00       0.00       0.00       0.00
  genvbounds       :       0.00       0.00       0.00       0.00       0.00       0.00
  nlobbt           :       0.00       0.00       0.00       0.00       0.00       0.00
  obbt             :       0.00       0.00       0.00       0.00       0.00       0.00
  probing          :      12.78       0.00      12.78       0.00       0.00       0.00
  pseudoobj        :       0.15       0.00       0.00       0.15       0.00       0.00
  redcost          :       0.01       0.00       0.00       0.01       0.00       0.00
  rootredcost      :       0.00       0.00       0.00       0.00       0.00       0.00
  symmetry         :       0.19       0.00       0.19       0.00       0.00       0.00
  vbounds          :       0.11       0.00       0.10       0.00       0.00       0.00
Orbital fixing     :
  vars fixed to 0  :          0
  vars fixed to 1  :          0
Conflict Analysis  :       Time      Calls    Success    DomReds  Conflicts   Literals    Reconvs ReconvLits   Dualrays   Nonzeros   LP Iters   (pool size: [10000,10000])
  propagation      :       0.02        171         36          -        378      138.5          1      102.0          -          -          -
  infeasible LP    :       0.00          0          0          -          0        0.0          0        0.0          0        0.0          0
  bound exceed. LP :       0.00          0          0          -          0        0.0          0        0.0          0        0.0          0
  strong branching :       0.00          0          0          -          0        0.0          0        0.0          -          -          0
  pseudo solution  :       0.00          0          0          -          0        0.0          0        0.0          -          -          -
  applied globally :       0.02          -          -          0         89       67.6          -          -          0          -          -
  applied locally  :          -          -          -          0          0        0.0          -          -          0          -          -
Separators         :   ExecTime  SetupTime      Calls  RootCalls    Cutoffs    DomReds  FoundCuts ViaPoolAdd  DirectAdd    Applied ViaPoolApp  DirectApp      Conss
  cut pool         :       0.00          -         21         21          -          -        906        449          -          -          -          -          -    (maximal pool size:        906)
  aggregation      :       0.04       0.00         11         11          0          0         20         26          0          0          0          0          0
  > cmir           :          -          -          -          -          -          -          -         26          0          0          0          0          -
  > flowcover      :          -          -          -          -          -          -          -          0          0          0          0          0          -
  > knapsackcover  :          -          -          -          -          -          -          -          0          0          0          0          0          -
  cgmip            :       0.00       0.00          0          0          0          0          0          0          0          0          0          0          0
  clique           :       0.34       0.00         11         11          0          0         67         42          0          4          4          0          0
  closecuts        :       0.00       0.00          0          0          0          0          0          0          0          0          0          0          0
  convexproj       :       0.00       0.00          0          0          0          0          0          0          0          0          0          0          0
  disjunctive      :       0.00       0.00          0          0          0          0          0          0          0          0          0          0          0
  eccuts           :       0.00       0.00          0          0          0          0          0          0          0          0          0          0          0
  gauge            :       0.00       0.00          0          0          0          0          0          0          0          0          0          0          0
  gomory           :       0.39       0.00         10         10          0          0        173         11          0          1          1          0          0
  > gomorymi       :          -          -          -          -          -          -          -          0          0          0          0          0          -
  > strongcg       :          -          -          -          -          -          -          -         11          0          1          1          0          -
  impliedbounds    :       0.07       0.00         11         11          0          3        615        361          0        140        140          0          0
  interminor       :       0.00       0.00          0          0          0          0          0          0          0          0          0          0          0
  intobj           :       0.00       0.00          0          0          0          0          0          0          0          0          0          0          0
  mcf              :       0.00       0.00          1          1          0          0          0          0          0          0          0          0          0
  minor            :       0.00       0.00          0          0          0          0          0          0          0          0          0          0          0
  mixing           :       0.00       0.00         11         11          0          0          0          0          0          0          0          0          0
  oddcycle         :       0.00       0.00          0          0          0          0          0          0          0          0          0          0          0
  rapidlearning    :       0.00       0.00          0          0          0          0          0          0          0          0          0          0          0
  rlt              :       0.00       0.00         10         10          0          0          0          0          0          0          0          0          0
  zerohalf         :       0.02       0.00         11         11          0          0         31          9          0          6          6          0          0
Cutselectors       :   ExecTime  SetupTime      Calls  RootCalls   Selected     Forced   Filtered  RootSelec   RootForc   RootFilt 
  hybrid           :       0.00       0.00         11         11        157          0        303        157          0        303
Pricers            :   ExecTime  SetupTime      Calls       Vars
  problem variables:       0.00          -          0          0
Branching Rules    :   ExecTime  SetupTime   BranchLP  BranchExt   BranchPS    Cutoffs    DomReds       Cuts      Conss   Children
  allfullstrong    :       0.00       0.00          0          0          0          0          0          0          0          0
  cloud            :       0.00       0.00          0          0          0          0          0          0          0          0
  distribution     :       0.00       0.00          0          0          0          0          0          0          0          0
  fullstrong       :       0.00       0.00          0          0          0          0          0          0          0          0
  inference        :       0.00       0.00          0          0          0          0          0          0          0          0
  leastinf         :       0.00       0.00          0          0          0          0          0          0          0          0
  lookahead        :       0.00       0.00          0          0          0          0          0          0          0          0
  mostinf          :       0.00       0.00          0          0          0          0          0          0          0          0
  multaggr         :       0.00       0.00          0          0          0          0          0          0          0          0
  nodereopt        :       0.00       0.00          0          0          0          0          0          0          0          0
  pscost           :       0.00       0.00          0          0          0          0          0          0          0          0
  random           :       0.00       0.00          0          0          0          0          0          0          0          0
  relpscost        :       0.00       0.00          0          0          0          0          0          0          0          0
  vanillafullstrong:       0.00       0.00          0          0          0          0          0          0          0          0
Primal Heuristics  :   ExecTime  SetupTime      Calls      Found       Best
  LP solutions     :       0.00          -          -          0          0
  relax solutions  :       0.00          -          -          0          0
  pseudo solutions :       0.00          -          -          0          0
  strong branching :       0.00          -          -          0          0
  actconsdiving    :       0.00       0.00          0          0          0
  adaptivediving   :       0.00       0.00          0          0          0
  alns             :       0.04       0.00          1          0          0
  bound            :       0.00       0.00          0          0          0
  clique           :       0.06       0.00          1          0          0
  coefdiving       :       0.00       0.00          0          0          0
  completesol      :       0.00       0.00          0          0          0
  conflictdiving   :       0.03       0.00          1          0          0
  crossover        :       0.00       0.00          0          0          0
  dins             :       0.00       0.00          0          0          0
  distributiondivin:       0.00       0.00          0          0          0
  dps              :       0.00       0.00          0          0          0
  dualval          :       0.00       0.00          0          0          0
  farkasdiving     :       0.15       0.00          1          1          1
  feaspump         :       0.06       0.00          1          1          0
  fixandinfer      :       0.00       0.00          0          0          0
  fracdiving       :       0.00       0.00          0          0          0
  gins             :       0.00       0.00          0          0          0
  guideddiving     :       0.00       0.00          0          0          0
  indicator        :       0.00       0.00          0          0          0
  intdiving        :       0.00       0.00          0          0          0
  intshifting      :       0.00       0.00          0          0          0
  linesearchdiving :       0.00       0.00          0          0          0
  localbranching   :       0.00       0.00          0          0          0
  locks            :       0.07       0.00          1          0          0
  lpface           :       0.00       0.00          0          0          0
  mpec             :       0.00       0.00          0          0          0
  multistart       :       0.00       0.00          0          0          0
  mutation         :       0.00       0.00          0          0          0
  nlpdiving        :       0.00       0.00          0          0          0
  objpscostdiving  :       0.00       0.00          0          0          0
  octane           :       0.00       0.00          0          0          0
  ofins            :       0.00       0.00          0          0          0
  oneopt           :       0.00       0.00          1          0          0
  padm             :       0.00       0.00          0          0          0
  proximity        :       0.00       0.00          0          0          0
  pscostdiving     :       0.00       0.00          0          0          0
  randrounding     :       0.12       0.00         12          0          0
  rens             :       0.03       0.00          1          0          0
  reoptsols        :       0.00       0.00          0          0          0
  repair           :       0.00       0.00          0          0          0
  rins             :       0.00       0.00          0          0          0
  rootsoldiving    :       0.00       0.00          0          0          0
  rounding         :       0.01       0.00         12          0          0
  shiftandpropagate:       0.04       0.00          1          1          1
  shifting         :       0.01       0.00         12          0          0
  simplerounding   :       0.00       0.00          0          0          0
  subnlp           :       0.00       0.00          0          0          0
  trivial          :       0.00       0.00          2          0          0
  trivialnegation  :       0.00       0.00          0          0          0
  trustregion      :       0.00       0.00          0          0          0
  trysol           :       0.00       0.00          0          0          0
  twoopt           :       0.00       0.00          0          0          0
  undercover       :       0.00       0.00          0          0          0
  vbounds          :       0.09       0.00          1          0          0
  veclendiving     :       0.00       0.00          0          0          0
  zeroobj          :       0.00       0.00          0          0          0
  zirounding       :       0.00       0.00          1          0          0
  other solutions  :          -          -          -          0          -
LP                 :       Time      Calls Iterations  Iter/call   Iter/sec  Time-0-It Calls-0-It    ItLimit
  primal LP        :       0.03          1          0       0.00       0.00       0.03          1
  dual LP          :       0.22         15       1566     111.86    7224.68       0.00          1
  lex dual LP      :       0.00          0          0       0.00          -
  barrier LP       :       0.00          0          0       0.00          -       0.00          0
  resolve instable :       0.00          0          0       0.00          -
  diving/probing LP:       0.16         72       1057      14.68    6518.21
  strong branching :       0.00          0          0       0.00          -          -          -          0
    (at root node) :          -          0          0       0.00          -
  conflict analysis:       0.00          0          0       0.00          -
B&B Tree           :
  number of runs   :          1
  nodes            :          1 (0 internal, 1 leaves)
  feasible leaves  :          0
  infeas. leaves   :          1
  objective leaves :          0
  nodes (total)    :          1 (0 internal, 1 leaves)
  nodes left       :          0
  max depth        :          0
  max depth (total):          0
  backtracks       :          0 (0.0%)
  early backtracks :          0 (0.0%)
  nodes exc. ref.  :          0 (0.0%)
  delayed cutoffs  :          0
  repropagations   :          0 (0 domain reductions, 0 cutoffs)
  avg switch length:       2.00
  switching time   :       0.00
Root Node          :
  First LP value   : +6.00000000000000e+01
  First LP Iters   :        315 (2902.85 Iter/sec)
  First LP Time    :       0.11
  Final Dual Bound : +6.10000000000000e+01
  Final Root Iters :       1566
  Root LP Estimate :                     -
Solution           :
  Solutions found  :          3 (2 improvements)
  First Solution   : +2.70360000000000e+04   (in run 1, after 1 nodes, 14.70 seconds, depth 61, found by <shiftandpropagate>)
  Gap First Sol.   :  300300.00 %
  Gap Last Sol.    :       1.67 %
  Primal Bound     : +6.10000000000000e+01   (in run 1, after 1 nodes, 16.76 seconds, depth 69, found by <farkasdiving>)
  Dual Bound       : +6.10000000000000e+01
  Gap              :       0.00 %
Integrals          :      Total       Avg%
  primal-dual      :    1676.22      98.38
  primal-ref       :          -          - (not evaluated)
  dual-ref         :          -          - (not evaluated)
written solution information to file <results/final_miplib_symretope_if_extended_generating_set_cpx_v802__settings_final_nopeek_norelabel_extend_norestarts__2__neos-525149.mps.gz.sol>
@04 1686656946
